10J3M/DAT/10J3MUTR-5.dat
10 3
41.4936 14.7029
3.1942 45.0226
10.3775 9.4091
32.0421 33.3811
29.1265 16.126
38.2186 38.6928
10.2113 19.5144
27.4695 9.7335
24.7453 35.7669
32.6361 8.0365
57.5965