10J3M/SOL/10J3MUTR-5.sol
solution status: optimal solution found
objective value:                     84.8363571135012
x#1#2                                               1 	(obj:0)
x#2#3                                               1 	(obj:0)
x#3#1                                0.28554792163529 	(obj:0)
x#3#3                                0.71445207836471 	(obj:0)
x#4#1                               0.334655870802368 	(obj:0)
x#4#2                               0.665344129197632 	(obj:0)
x#6#1                               0.504016706352045 	(obj:0)
x#6#2                               0.495983293647955 	(obj:0)
x#7#3                                               1 	(obj:0)
x#9#1                               0.996825373913347 	(obj:0)
x#9#3                              0.0031746260866532 	(obj:0)
x#10#3                              0.853976845353949 	(obj:0)
z                                    84.8363571135012 	(obj:1)
